(set-info :source  loris-7.ddns.comp.nus.edu.sg/~project/hip/) 
;Variables declarations
(declare-fun height2_4486 () Int)
(declare-fun size2_4485 () Int)
(declare-fun height1_4483 () Int)
(declare-fun size1_4482 () Int)
(declare-fun lrm () Int)
(declare-fun q_4484 () Int)
(declare-fun p_4481 () Int)
(declare-fun Anon_4480 () Int)
(declare-fun flted_50_4444 () Int)
(declare-fun r_primed () Int)
(declare-fun r () Int)
(declare-fun lr_primed () Int)
(declare-fun lr () Int)
(declare-fun ll () Int)
(declare-fun rm () Int)
(declare-fun flted_50_4443 () Int)
(declare-fun m () Int)
(declare-fun n () Int)
(declare-fun h_4464 () Int)
(declare-fun h_4460 () Int)
(declare-fun res () Int)
(declare-fun v_node_60_3465_primed () Int)
(declare-fun Anon_4467 () Int)
(declare-fun v_4462 () Int)
(declare-fun p_4468 () Int)
(declare-fun ll_primed () Int)
(declare-fun q_4471 () Int)
(declare-fun tmp_4463 () Int)
(declare-fun size1_4469 () Int)
(declare-fun llm () Int)
(declare-fun height1_4470 () Int)
(declare-fun lln () Int)
;Relations declarations
;Axioms assertions
;Antecedent
(assert (= height2_4486 n))
(assert (= size2_4485 m))
(assert (= height1_4483 flted_50_4444))
(assert (= size1_4482 lrm))
(assert (= q_4484 r_primed))
(assert (= p_4481 lr_primed))
(assert (= Anon_4480 v_4462))
(assert (= v_4462 10))
(assert (= (+ flted_50_4443 1) lln))
(assert (= (+ flted_50_4444 1) lln))
(assert (= r_primed r))
(assert (= lr_primed lr))
(assert (= ll_primed ll))
(assert (= m rm))
(assert (= n flted_50_4443))
(assert (<= 0 rm))
(assert (<= 0 flted_50_4443))
(assert (<= 0 m))
(assert (<= 0 n))
(assert (= h_4460 (+ 1 n)))
(assert (= h_4464 (+ 1 h_4460)))
(assert (= res v_node_60_3465_primed))
(assert (= Anon_4467 v_4462))
(assert (= p_4468 ll_primed))
(assert (= q_4471 tmp_4463))
(assert (= size1_4469 llm))
(assert (= height1_4470 lln))
;Negation of Consequence
(assert (not false))
(check-sat)